Traveling Salesman Problem/TSP_generados/Aleatorio1620391045_13.tsp
NAME: Aleatorio1620391045_13.tsp
COMMENT: Randomly generated scenario
TYPE: TSP
DIMENSION: 13
EDGE_WEIGHT_TYPE: ATT
NODE_COORD_SECTION
1 5.29 40.94
2 8.3 13.12
3 40.45 31.46
4 36.82 1.22
5 11.1 44.0
6 17.98 20.33
7 40.7 31.68
8 0.55 33.21
9 3.46 27.84
10 2.39 35.93
11 13.54 28.99
12 40.41 19.3
13 31.46 21.74
