Traveling Salesman Problem/TSP_generados/Aleatorio1620391045_13.opt.tour
NAME: Aleatorio1620391045_13.opt.tour
COMMENT: Optimal solution for Aleatorio1620391045_13 (151.0272574724391)
TYPE: TOUR
DIMENSION: 13
TOUR_SECTION
1 10 8 9 2 4 12 7 3 13 6 11 5
-1
EOF
